
domSetOfBlockInFunction = array1d(allBlocksInFunction, [{0},{1,6,0},{2,5,0},{3,8,1,6,0},{4,1,6,0},{5,0},{6,0},{7,1,6,0},{8,1,6,0}]);

execFrequencyOfBlockInFunction = array1d(allBlocksInFunction, [16384,6144,10240,3072,6144,16384,16384,6144,6144]);

defEdgesForBlockInFunction = array1d(allBlocksInFunction, [{},{16},{},{17},{6},{},{},{},{}]);

entryBlockOfFunction = 0;

funLocDomain = [|0, 1, 33, |];

numBlocksInFunction = 9;

numDataInFunction = 20;

numOperationsInFunction = 25;

statesInFunction = [];

inBlock = [|6, 0, |7, 0, |8, 0, |9, 0, |29, 3, |30, 5, |31, 6, |32, 7, |33, 8, |34, 4, |35, 2, |];

inBlockSucc = [|1, 3, 4, |2, 5, 2, |3, 6, 1, |4, 7, 4, |5, 8, 3, |19, 0, 5, |20, 0, 6, |21, 1, 7, |22, 1, 8, |23, 0, 5, |25, 0, 5, |26, 1, 7, |27, 0, 6, |28, 1, 8, |];

locDomain = [|18, 8, 1, 31, |18, 13, 1, 31, |18, 3, 1, 31, |19, 1, locValueForNull, locValueForNull, |20, 1, locValueForNull, locValueForNull, |21, 3, locValueForNull, locValueForNull, |22, 3, locValueForNull, locValueForNull, |23, 1, locValueForNull, locValueForNull, |24, 7, 0, 31, |24, 4, 1, 31, |34, 18, 31, 31, |35, 10, 31, 31, |36, 11, 0, 0, |37, 15, 0, 0, |38, 11, 1, 31, |39, 13, 1, 31, |40, 15, 1, 31, |41, 17, 1, 31, |42, 11, 1, 31, |43, 13, 1, 31, |44, 15, 1, 31, |45, 17, 1, 31, |];

applyDefDomUseConstraintForMatch = array1d(allMatches, [false,true,true,true,true,true,true,true,true,true,true,true,true,true,true,true,true,true,true,true,true,true,true,true,true,true,true,true,true,true,true,true,true,true,true,true,true,true,true,true,true,true,true,true,true,true]);

codeSizeOfMatch = array1d(allMatches, [0,0,0,0,0,0,0,0,0,0,0,0,0,0,0,0,0,0,12,4,4,4,4,4,4,4,4,4,4,4,4,4,4,4,12,12,0,0,4,4,4,4,8,8,8,8]);

consumedBlocksInMatch = array1d(allMatches, [{},{},{},{},{},{},{},{},{},{},{},{},{},{},{},{},{},{},{},{},{},{},{},{},{},{},{},{},{},{},{},{},{},{},{},{},{},{},{},{},{},{},{},{},{},{}]);

dataDefinedByMatch = array1d(allMatches, [{6},{},{},{},{},{},{19},{0},{2},{5},{12},{14},{7},{8},{9},{10},{16},{18},{3},{1,12},{1,12},{3,14},{3,14},{1,11,12},{4,15},{},{},{},{},{},{},{},{},{},{},{},{11},{15},{11},{13},{15},{17},{11},{13},{15},{17}]);

dataUsedByMatch = array1d(allMatches, [{17,16},{},{},{},{},{},{},{},{},{},{1},{3},{0},{0},{0},{0},{4},{6},{8,13},{9,11,1,12},{9,11,1,12},{8,13,3,14},{8,13,3,14},{9,19,1,11,12},{19,7,15},{12},{14},{12},{14},{},{},{},{},{},{18},{10},{19},{19},{19},{2},{19},{5},{19},{2},{19},{5}]);

entryBlockOfMatch = array1d(allMatches, [{},{3},{5},{6},{7},{8},{0},{0},{0},{0},{},{},{},{},{},{},{},{},{},{0},{0},{1},{1},{0},{},{0},{1},{0},{1},{3},{5},{6},{7},{8},{4},{2},{},{},{},{},{},{},{},{},{},{}]);

latencyOfMatch = array1d(allMatches, [0,0,0,0,0,0,0,0,0,0,0,0,0,0,0,0,0,0,3,1,1,1,1,1,1,1,1,1,1,1,1,1,1,1,2,2,0,0,1,1,1,1,2,2,2,2]);

nonCopyMatches = {0,1,2,3,4,5,6,7,8,9,18,19,20,21,22,23,24,25,26,27,28,29,30,31,32,33,34,35};

operationsCoveredByMatch = array1d(allMatches, [{3},{6},{21},{22},{23},{24},{},{},{},{},{14},{16},{9},{10},{11},{12},{18},{20},{1},{4,0,14},{4,0,14},{5,1,16},{5,1,16},{4,0,13,14},{2,17},{4},{5},{4},{5},{6},{21},{22},{23},{24},{7},{8},{13},{17},{13},{15},{17},{19},{13},{15},{17},{19}]);

spannedBlocksInMatch = array1d(allMatches, [{},{3,4},{5,2},{6,1},{7,4},{8,3},{0},{0},{0},{0},{},{},{},{},{},{},{},{},{},{0,6,5},{0,6,5},{1,8,7},{1,8,7},{0,6,5},{},{0,6,5},{1,8,7},{0,6,5},{1,8,7},{3,4},{5,2},{6,1},{7,4},{8,3},{4},{2},{},{},{},{},{},{},{},{},{},{}]);

numLocations = 34;

numMatches = 46;

sameLoc = [|0, 17, 16, |0, 16, 6, |10, 1, 12, |11, 3, 14, |12, 0, 7, |13, 0, 8, |14, 0, 9, |15, 0, 10, |16, 4, 16, |17, 6, 18, |];

